db/inputs/10038245010262146411045312311341714496.smt2
(set-logic QF_FP)
(declare-const x0 (_ FloatingPoint 11 53))
(declare-const x1 (_ FloatingPoint 11 53))
(declare-const x2 (_ FloatingPoint 11 53))
(declare-const x3 (_ FloatingPoint 11 53))
(declare-const x4 (_ FloatingPoint 11 53))
(declare-const x5 (_ FloatingPoint 11 53))
(assert (fp.lt (fp.mul RNE x2 x4) (fp.sub RNE x0 x4)))
(assert (fp.gt (fp.div RNE x2 x0) (fp.div RNE x1 x0)))
(assert (fp.geq (fp.neg x1) (fp.div RNE x3 x3)))
(assert (fp.geq (fp.neg x1) (fp.add RNE x1 x0)))
(assert (fp.gt (fp.div RNE x0 x5) (fp.div RNE x2 x4)))
(assert (fp.eq (fp.mul RNE x3 x3) (fp.add RNE x2 x2)))
(assert (fp.leq (fp.neg x5) (fp.neg x1)))
(assert (fp.leq (fp.mul RNE x1 x0) (fp.sub RNE x5 x3)))
(assert (fp.geq (fp.div RNE x1 x0) (fp.add RNE x1 x5)))
(assert (fp.geq (fp.mul RNE x2 x3) (fp.mul RNE x5 x0)))
(assert (fp.leq (fp.div RNE x2 x5) (fp.div RNE x5 x2)))
(assert (fp.eq (fp.neg x5) (fp.div RNE x2 x3)))
(assert (fp.geq (fp.div RNE x1 x4) (fp.mul RNE x2 x1)))
(assert (fp.gt (fp.neg x2) (fp.div RNE x1 x2)))
(assert (fp.gt (fp.mul RNE x2 x5) (fp.add RNE x3 x4)))
(assert (fp.gt (fp.mul RNE x2 x3) (fp.add RNE x1 x5)))
(check-sat)
