db/data/10038245010262146411045312311341714496.z3.out
-------------------
2500.211510474
